c description: Graph pigeonhole principle formula on fast_gnp_random_graph(20,10,0.5)
c generator: CNFgen (0.9.0)
c copyright: (C) 2012-2020 Massimo Lauria <massimo.lauria@uniroma1.it>
c url: https://massimolauria.net/cnfgen
c
p cnf 95 441
1 2 3 4 0
5 6 7 8 9 10 11 12 0
13 14 15 16 17 18 19 0
20 21 22 23 24 25 0
26 27 28 0
29 30 31 32 33 34 35 0
36 37 38 39 0
40 41 42 43 44 0
45 46 0
47 48 49 50 51 52 0
53 54 55 56 57 58 0
59 60 61 62 63 0
64 65 66 67 68 0
69 70 0
71 72 73 74 0
75 76 77 0
78 79 80 81 82 83 0
84 85 86 87 88 0
89 90 91 92 93 0
94 95 0
-1 -20 0
-1 -47 0
-1 -53 0
-1 -59 0
-1 -64 0
-1 -71 0
-1 -75 0
-1 -78 0
-1 -94 0
-20 -47 0
-20 -53 0
-20 -59 0
-20 -64 0
-20 -71 0
-20 -75 0
-20 -78 0
-20 -94 0
-47 -53 0
-47 -59 0
-47 -64 0
-47 -71 0
-47 -75 0
-47 -78 0
-47 -94 0
-53 -59 0
-53 -64 0
-53 -71 0
-53 -75 0
-53 -78 0
-53 -94 0
-59 -64 0
-59 -71 0
-59 -75 0
-59 -78 0
-59 -94 0
-64 -71 0
-64 -75 0
-64 -78 0
-64 -94 0
-71 -75 0
-71 -78 0
-71 -94 0
-75 -78 0
-75 -94 0
-78 -94 0
-5 -13 0
-5 -21 0
-5 -29 0
-5 -36 0
-5 -40 0
-5 -48 0
-5 -54 0
-5 -65 0
-5 -79 0
-5 -89 0
-13 -21 0
-13 -29 0
-13 -36 0
-13 -40 0
-13 -48 0
-13 -54 0
-13 -65 0
-13 -79 0
-13 -89 0
-21 -29 0
-21 -36 0
-21 -40 0
-21 -48 0
-21 -54 0
-21 -65 0
-21 -79 0
-21 -89 0
-29 -36 0
-29 -40 0
-29 -48 0
-29 -54 0
-29 -65 0
-29 -79 0
-29 -89 0
-36 -40 0
-36 -48 0
-36 -54 0
-36 -65 0
-36 -79 0
-36 -89 0
-40 -48 0
-40 -54 0
-40 -65 0
-40 -79 0
-40 -89 0
-48 -54 0
-48 -65 0
-48 -79 0
-48 -89 0
-54 -65 0
-54 -79 0
-54 -89 0
-65 -79 0
-65 -89 0
-79 -89 0
-6 -14 0
-6 -30 0
-6 -45 0
-6 -49 0
-6 -55 0
-6 -69 0
-6 -72 0
-6 -90 0
-14 -30 0
-14 -45 0
-14 -49 0
-14 -55 0
-14 -69 0
-14 -72 0
-14 -90 0
-30 -45 0
-30 -49 0
-30 -55 0
-30 -69 0
-30 -72 0
-30 -90 0
-45 -49 0
-45 -55 0
-45 -69 0
-45 -72 0
-45 -90 0
-49 -55 0
-49 -69 0
-49 -72 0
-49 -90 0
-55 -69 0
-55 -72 0
-55 -90 0
-69 -72 0
-69 -90 0
-72 -90 0
-2 -7 0
-2 -15 0
-2 -22 0
-2 -46 0
-2 -56 0
-2 -60 0
-2 -73 0
-7 -15 0
-7 -22 0
-7 -46 0
-7 -56 0
-7 -60 0
-7 -73 0
-15 -22 0
-15 -46 0
-15 -56 0
-15 -60 0
-15 -73 0
-22 -46 0
-22 -56 0
-22 -60 0
-22 -73 0
-46 -56 0
-46 -60 0
-46 -73 0
-56 -60 0
-56 -73 0
-60 -73 0
-8 -16 0
-8 -23 0
-8 -31 0
-8 -37 0
-8 -50 0
-8 -57 0
-8 -66 0
-8 -74 0
-8 -76 0
-8 -80 0
-8 -84 0
-16 -23 0
-16 -31 0
-16 -37 0
-16 -50 0
-16 -57 0
-16 -66 0
-16 -74 0
-16 -76 0
-16 -80 0
-16 -84 0
-23 -31 0
-23 -37 0
-23 -50 0
-23 -57 0
-23 -66 0
-23 -74 0
-23 -76 0
-23 -80 0
-23 -84 0
-31 -37 0
-31 -50 0
-31 -57 0
-31 -66 0
-31 -74 0
-31 -76 0
-31 -80 0
-31 -84 0
-37 -50 0
-37 -57 0
-37 -66 0
-37 -74 0
-37 -76 0
-37 -80 0
-37 -84 0
-50 -57 0
-50 -66 0
-50 -74 0
-50 -76 0
-50 -80 0
-50 -84 0
-57 -66 0
-57 -74 0
-57 -76 0
-57 -80 0
-57 -84 0
-66 -74 0
-66 -76 0
-66 -80 0
-66 -84 0
-74 -76 0
-74 -80 0
-74 -84 0
-76 -80 0
-76 -84 0
-80 -84 0
-3 -9 0
-3 -26 0
-3 -51 0
-3 -61 0
-3 -81 0
-9 -26 0
-9 -51 0
-9 -61 0
-9 -81 0
-26 -51 0
-26 -61 0
-26 -81 0
-51 -61 0
-51 -81 0
-61 -81 0
-17 -24 0
-17 -32 0
-17 -41 0
-17 -52 0
-17 -85 0
-17 -91 0
-24 -32 0
-24 -41 0
-24 -52 0
-24 -85 0
-24 -91 0
-32 -41 0
-32 -52 0
-32 -85 0
-32 -91 0
-41 -52 0
-41 -85 0
-41 -91 0
-52 -85 0
-52 -91 0
-85 -91 0
-10 -18 0
-10 -25 0
-10 -33 0
-10 -38 0
-10 -42 0
-10 -62 0
-10 -70 0
-10 -82 0
-10 -86 0
-10 -95 0
-18 -25 0
-18 -33 0
-18 -38 0
-18 -42 0
-18 -62 0
-18 -70 0
-18 -82 0
-18 -86 0
-18 -95 0
-25 -33 0
-25 -38 0
-25 -42 0
-25 -62 0
-25 -70 0
-25 -82 0
-25 -86 0
-25 -95 0
-33 -38 0
-33 -42 0
-33 -62 0
-33 -70 0
-33 -82 0
-33 -86 0
-33 -95 0
-38 -42 0
-38 -62 0
-38 -70 0
-38 -82 0
-38 -86 0
-38 -95 0
-42 -62 0
-42 -70 0
-42 -82 0
-42 -86 0
-42 -95 0
-62 -70 0
-62 -82 0
-62 -86 0
-62 -95 0
-70 -82 0
-70 -86 0
-70 -95 0
-82 -86 0
-82 -95 0
-86 -95 0
-4 -11 0
-4 -27 0
-4 -34 0
-4 -39 0
-4 -43 0
-4 -58 0
-4 -67 0
-4 -77 0
-4 -87 0
-4 -92 0
-11 -27 0
-11 -34 0
-11 -39 0
-11 -43 0
-11 -58 0
-11 -67 0
-11 -77 0
-11 -87 0
-11 -92 0
-27 -34 0
-27 -39 0
-27 -43 0
-27 -58 0
-27 -67 0
-27 -77 0
-27 -87 0
-27 -92 0
-34 -39 0
-34 -43 0
-34 -58 0
-34 -67 0
-34 -77 0
-34 -87 0
-34 -92 0
-39 -43 0
-39 -58 0
-39 -67 0
-39 -77 0
-39 -87 0
-39 -92 0
-43 -58 0
-43 -67 0
-43 -77 0
-43 -87 0
-43 -92 0
-58 -67 0
-58 -77 0
-58 -87 0
-58 -92 0
-67 -77 0
-67 -87 0
-67 -92 0
-77 -87 0
-77 -92 0
-87 -92 0
-12 -19 0
-12 -28 0
-12 -35 0
-12 -44 0
-12 -63 0
-12 -68 0
-12 -83 0
-12 -88 0
-12 -93 0
-19 -28 0
-19 -35 0
-19 -44 0
-19 -63 0
-19 -68 0
-19 -83 0
-19 -88 0
-19 -93 0
-28 -35 0
-28 -44 0
-28 -63 0
-28 -68 0
-28 -83 0
-28 -88 0
-28 -93 0
-35 -44 0
-35 -63 0
-35 -68 0
-35 -83 0
-35 -88 0
-35 -93 0
-44 -63 0
-44 -68 0
-44 -83 0
-44 -88 0
-44 -93 0
-63 -68 0
-63 -83 0
-63 -88 0
-63 -93 0
-68 -83 0
-68 -88 0
-68 -93 0
-83 -88 0
-83 -93 0
-88 -93 0